p edge 198 2742
e 1 8
e 1 24
e 1 35
e 1 42
e 1 46
e 1 60
e 1 74
e 1 78
e 1 81
e 1 95
e 1 98
e 1 99
e 1 100
e 1 101
e 1 103
e 1 104
e 1 108
e 1 131
e 1 132
e 1 154
e 1 159
e 1 168
e 1 171
e 2 14
e 2 54
e 2 150
e 3 115
e 3 153
e 3 167
e 3 172
e 4 5
e 4 13
e 4 26
e 4 77
e 4 85
e 4 102
e 4 138
e 4 147
e 4 153
e 4 156
e 4 167
e 4 169
e 4 172
e 4 173
e 4 176
e 4 189
e 5 13
e 5 19
e 5 21
e 5 26
e 5 27
e 5 28
e 5 29
e 5 51
e 5 53
e 5 54
e 5 57
e 5 73
e 5 75
e 5 76
e 5 77
e 5 79
e 5 85
e 5 86
e 5 90
e 5 96
e 5 97
e 5 102
e 5 124
e 5 126
e 5 128
e 5 136
e 5 138
e 5 140
e 5 144
e 5 147
e 5 149
e 5 153
e 5 155
e 5 156
e 5 163
e 5 167
e 5 169
e 5 172
e 5 173
e 5 176
e 5 189
e 5 191
e 5 194
e 5 196
e 5 197
e 6 152
e 6 157
e 7 10
e 7 11
e 7 14
e 7 19
e 7 36
e 7 49
e 7 53
e 7 55
e 7 56
e 7 57
e 7 60
e 7 61
e 7 67
e 7 69
e 7 70
e 7 71
e 7 72
e 7 74
e 7 81
e 7 83
e 7 87
e 7 93
e 7 94
e 7 95
e 7 103
e 7 108
e 7 111
e 7 112
e 7 113
e 7 114
e 7 122
e 7 125
e 7 127
e 7 129
e 7 130
e 7 132
e 7 136
e 7 141
e 7 146
e 7 150
e 7 151
e 7 158
e 7 161
e 7 164
e 7 168
e 7 170
e 7 171
e 7 177
e 7 178
e 7 185
e 7 190
e 7 192
e 7 193
e 7 194
e 7 195
e 7 196
e 7 197
e 8 35
e 8 46
e 8 60
e 8 89
e 8 95
e 8 98
e 8 99
e 8 100
e 8 101
e 8 110
e 8 118
e 8 121
e 8 131
e 8 132
e 8 136
e 8 142
e 8 154
e 8 168
e 8 171
e 8 174
e 9 11
e 9 23
e 9 32
e 9 38
e 9 71
e 9 80
e 9 111
e 9 116
e 9 117
e 9 118
e 9 121
e 9 122
e 9 135
e 9 137
e 9 139
e 9 153
e 9 162
e 9 168
e 9 179
e 9 189
e 10 11
e 10 14
e 10 49
e 10 53
e 10 57
e 10 60
e 10 61
e 10 69
e 10 70
e 10 71
e 10 74
e 10 87
e 10 103
e 10 112
e 10 113
e 10 114
e 10 127
e 10 130
e 10 141
e 10 151
e 10 158
e 10 161
e 10 164
e 10 192
e 10 195
e 10 196
e 11 23
e 11 32
e 11 38
e 11 49
e 11 53
e 11 57
e 11 71
e 11 80
e 11 112
e 11 113
e 11 114
e 11 135
e 11 139
e 11 158
e 11 161
e 11 162
e 11 164
e 11 179
e 11 189
e 11 196
e 12 18
e 12 19
e 12 31
e 12 49
e 12 53
e 12 54
e 12 55
e 12 56
e 12 57
e 12 60
e 12 61
e 12 71
e 12 73
e 12 83
e 12 114
e 12 129
e 12 170
e 12 194
e 12 195
e 12 196
e 12 197
e 13 25
e 13 26
e 13 28
e 13 73
e 13 85
e 13 86
e 13 92
e 13 102
e 13 128
e 13 140
e 13 147
e 13 148
e 13 149
e 13 153
e 13 155
e 13 156
e 13 167
e 13 169
e 13 172
e 13 173
e 13 176
e 13 189
e 13 191
e 14 54
e 14 60
e 14 61
e 14 69
e 14 70
e 14 87
e 14 96
e 14 112
e 14 114
e 14 127
e 14 130
e 14 141
e 14 150
e 14 151
e 14 158
e 14 161
e 14 164
e 14 185
e 14 186
e 14 192
e 14 194
e 14 195
e 15 16
e 15 24
e 15 48
e 15 81
e 15 91
e 15 104
e 15 105
e 15 107
e 16 24
e 16 48
e 16 78
e 16 81
e 16 91
e 16 104
e 16 105
e 16 107
e 17 62
e 17 136
e 18 19
e 18 29
e 18 31
e 18 50
e 18 53
e 18 54
e 18 55
e 18 56
e 18 57
e 18 60
e 18 61
e 18 73
e 18 77
e 18 86
e 18 88
e 18 90
e 18 96
e 18 114
e 18 128
e 18 129
e 18 131
e 18 132
e 18 136
e 18 140
e 18 147
e 18 149
e 18 158
e 18 167
e 18 172
e 18 183
e 18 184
e 18 191
e 18 194
e 18 195
e 18 196
e 18 197
e 19 20
e 19 31
e 19 49
e 19 53
e 19 54
e 19 55
e 19 56
e 19 57
e 19 60
e 19 61
e 19 70
e 19 129
e 19 130
e 19 136
e 19 185
e 19 192
e 19 194
e 19 195
e 19 196
e 19 197
e 20 24
e 20 60
e 20 70
e 20 78
e 20 80
e 20 87
e 20 136
e 20 137
e 20 158
e 20 168
e 22 43
e 22 81
e 22 83
e 22 98
e 22 99
e 22 100
e 22 101
e 22 105
e 22 108
e 22 131
e 22 132
e 22 136
e 22 164
e 22 170
e 22 174
e 22 178
e 22 182
e 22 194
e 22 197
e 23 32
e 23 38
e 23 60
e 23 80
e 23 111
e 23 135
e 23 139
e 23 162
e 23 168
e 23 179
e 23 189
e 24 35
e 24 42
e 24 43
e 24 46
e 24 48
e 24 60
e 24 74
e 24 78
e 24 80
e 24 81
e 24 91
e 24 99
e 24 100
e 24 103
e 24 104
e 24 105
e 24 107
e 24 108
e 24 132
e 24 136
e 24 154
e 24 168
e 24 171
e 24 174
e 24 182
e 25 92
e 25 117
e 25 148
e 25 149
e 25 153
e 26 28
e 26 29
e 26 73
e 26 77
e 26 85
e 26 86
e 26 90
e 26 96
e 26 102
e 26 124
e 26 128
e 26 138
e 26 140
e 26 147
e 26 149
e 26 153
e 26 155
e 26 156
e 26 167
e 26 169
e 26 172
e 26 173
e 26 176
e 26 178
e 26 184
e 26 189
e 26 191
e 26 198
e 27 29
e 27 51
e 27 76
e 27 96
e 27 126
e 27 128
e 27 144
e 27 147
e 27 149
e 27 153
e 27 167
e 27 172
e 28 29
e 28 73
e 28 77
e 28 85
e 28 86
e 28 90
e 28 96
e 28 102
e 28 124
e 28 128
e 28 138
e 28 140
e 28 147
e 28 149
e 28 153
e 28 155
e 28 156
e 28 167
e 28 172
e 28 173
e 28 176
e 28 184
e 28 189
e 28 191
e 28 198
e 29 51
e 29 73
e 29 76
e 29 77
e 29 86
e 29 88
e 29 90
e 29 96
e 29 97
e 29 124
e 29 126
e 29 128
e 29 136
e 29 138
e 29 140
e 29 144
e 29 147
e 29 149
e 29 153
e 29 167
e 29 169
e 29 172
e 29 176
e 29 184
e 29 191
e 29 198
e 30 34
e 31 32
e 31 53
e 31 54
e 31 55
e 31 56
e 31 57
e 31 60
e 31 61
e 31 106
e 31 111
e 31 123
e 31 129
e 31 170
e 31 194
e 31 195
e 31 196
e 31 197
e 32 33
e 32 35
e 32 38
e 32 40
e 32 44
e 32 58
e 32 60
e 32 61
e 32 62
e 32 63
e 32 64
e 32 65
e 32 66
e 32 80
e 32 91
e 32 98
e 32 99
e 32 100
e 32 101
e 32 105
e 32 106
e 32 107
e 32 108
e 32 109
e 32 110
e 32 111
e 32 122
e 32 123
e 32 131
e 32 132
e 32 135
e 32 139
e 32 154
e 32 162
e 32 168
e 32 179
e 32 189
e 33 35
e 33 38
e 33 40
e 33 44
e 33 58
e 33 60
e 33 62
e 33 63
e 33 64
e 33 65
e 33 66
e 33 91
e 33 98
e 33 99
e 33 100
e 33 101
e 33 105
e 33 106
e 33 107
e 33 108
e 33 109
e 33 110
e 33 116
e 33 119
e 33 122
e 33 123
e 33 131
e 33 132
e 33 134
e 33 135
e 33 154
e 33 168
e 33 179
e 34 70
e 34 83
e 34 192
e 35 40
e 35 44
e 35 46
e 35 58
e 35 60
e 35 62
e 35 63
e 35 64
e 35 65
e 35 66
e 35 68
e 35 74
e 35 78
e 35 95
e 35 98
e 35 99
e 35 100
e 35 101
e 35 103
e 35 104
e 35 105
e 35 106
e 35 107
e 35 108
e 35 109
e 35 110
e 35 122
e 35 123
e 35 131
e 35 132
e 35 135
e 35 154
e 35 166
e 35 168
e 35 170
e 35 171
e 35 179
e 35 187
e 36 49
e 36 53
e 36 54
e 36 55
e 36 56
e 36 60
e 36 67
e 36 70
e 36 72
e 36 81
e 36 83
e 36 87
e 36 129
e 36 150
e 36 158
e 36 161
e 36 164
e 36 170
e 36 174
e 36 178
e 36 192
e 36 194
e 36 195
e 36 196
e 36 197
e 37 90
e 37 133
e 37 153
e 37 155
e 37 180
e 38 40
e 38 44
e 38 63
e 38 80
e 38 91
e 38 105
e 38 116
e 38 119
e 38 134
e 38 135
e 38 139
e 38 162
e 38 179
e 38 189
e 39 51
e 39 80
e 39 116
e 39 149
e 39 153
e 39 181
e 40 44
e 40 58
e 40 60
e 40 62
e 40 63
e 40 64
e 40 65
e 40 66
e 40 91
e 40 98
e 40 99
e 40 100
e 40 101
e 40 105
e 40 106
e 40 107
e 40 108
e 40 109
e 40 110
e 40 116
e 40 119
e 40 122
e 40 123
e 40 131
e 40 132
e 40 134
e 40 135
e 40 154
e 40 168
e 40 179
e 41 45
e 41 77
e 41 86
e 41 88
e 41 96
e 41 97
e 41 136
e 42 46
e 42 50
e 42 81
e 42 104
e 42 106
e 42 123
e 42 136
e 42 159
e 42 182
e 42 183
e 43 59
e 43 78
e 43 81
e 43 82
e 43 83
e 43 98
e 43 99
e 43 100
e 43 101
e 43 105
e 43 108
e 43 118
e 43 121
e 43 122
e 43 131
e 43 132
e 43 136
e 43 143
e 43 158
e 43 162
e 43 164
e 43 170
e 43 174
e 43 178
e 43 182
e 43 194
e 43 197
e 44 50
e 44 58
e 44 60
e 44 62
e 44 63
e 44 64
e 44 65
e 44 66
e 44 68
e 44 91
e 44 98
e 44 99
e 44 100
e 44 101
e 44 105
e 44 106
e 44 107
e 44 108
e 44 109
e 44 110
e 44 122
e 44 123
e 44 131
e 44 132
e 44 135
e 44 139
e 44 154
e 44 166
e 44 168
e 44 171
e 44 179
e 44 187
e 45 77
e 45 86
e 45 88
e 45 96
e 45 97
e 45 136
e 46 50
e 46 60
e 46 81
e 46 95
e 46 98
e 46 99
e 46 100
e 46 101
e 46 104
e 46 106
e 46 123
e 46 131
e 46 132
e 46 154
e 46 159
e 46 168
e 46 171
e 46 183
e 47 155
e 47 167
e 47 180
e 48 81
e 48 91
e 48 104
e 48 105
e 48 107
e 49 52
e 49 53
e 49 54
e 49 57
e 49 60
e 49 67
e 49 69
e 49 70
e 49 71
e 49 79
e 49 83
e 49 90
e 49 112
e 49 113
e 49 114
e 49 118
e 49 121
e 49 125
e 49 127
e 49 130
e 49 136
e 49 142
e 49 143
e 49 149
e 49 150
e 49 158
e 49 161
e 49 162
e 49 164
e 49 174
e 49 178
e 49 185
e 49 192
e 49 194
e 49 195
e 49 196
e 50 53
e 50 56
e 50 60
e 50 64
e 50 65
e 50 66
e 50 68
e 50 81
e 50 88
e 50 106
e 50 110
e 50 111
e 50 114
e 50 123
e 50 131
e 50 132
e 50 139
e 50 158
e 50 166
e 50 168
e 50 179
e 50 183
e 50 196
e 51 75
e 51 76
e 51 79
e 51 96
e 51 126
e 51 128
e 51 136
e 51 144
e 51 147
e 51 149
e 51 153
e 51 167
e 51 172
e 51 174
e 51 181
e 52 53
e 52 60
e 52 83
e 52 88
e 52 196
e 53 54
e 53 55
e 53 56
e 53 57
e 53 60
e 53 61
e 53 67
e 53 71
e 53 81
e 53 83
e 53 88
e 53 111
e 53 112
e 53 113
e 53 114
e 53 129
e 53 131
e 53 132
e 53 149
e 53 150
e 53 158
e 53 161
e 53 164
e 53 170
e 53 178
e 53 183
e 53 194
e 53 195
e 53 196
e 53 197
e 54 55
e 54 56
e 54 57
e 54 60
e 54 61
e 54 67
e 54 69
e 54 70
e 54 83
e 54 87
e 54 93
e 54 94
e 54 96
e 54 111
e 54 125
e 54 129
e 54 130
e 54 146
e 54 149
e 54 150
e 54 158
e 54 161
e 54 164
e 54 168
e 54 170
e 54 174
e 54 177
e 54 178
e 54 186
e 54 190
e 54 192
e 54 193
e 54 194
e 54 195
e 54 196
e 54 197
e 55 56
e 55 57
e 55 60
e 55 61
e 55 67
e 55 81
e 55 83
e 55 129
e 55 150
e 55 158
e 55 164
e 55 170
e 55 178
e 55 194
e 55 195
e 55 196
e 55 197
e 56 57
e 56 60
e 56 61
e 56 67
e 56 81
e 56 83
e 56 88
e 56 111
e 56 114
e 56 129
e 56 131
e 56 132
e 56 150
e 56 158
e 56 164
e 56 170
e 56 178
e 56 183
e 56 194
e 56 195
e 56 196
e 56 197
e 57 60
e 57 61
e 57 70
e 57 71
e 57 83
e 57 89
e 57 111
e 57 112
e 57 113
e 57 114
e 57 121
e 57 129
e 57 130
e 57 136
e 57 142
e 57 158
e 57 161
e 57 164
e 57 185
e 57 192
e 57 194
e 57 195
e 57 196
e 57 197
e 58 60
e 58 62
e 58 63
e 58 64
e 58 65
e 58 66
e 58 98
e 58 99
e 58 100
e 58 101
e 58 105
e 58 106
e 58 107
e 58 108
e 58 109
e 58 110
e 58 122
e 58 123
e 58 131
e 58 132
e 58 135
e 58 154
e 58 162
e 58 168
e 58 179
e 58 187
e 58 188
e 59 82
e 59 99
e 59 100
e 59 118
e 59 121
e 59 122
e 59 136
e 59 143
e 59 158
e 59 162
e 59 174
e 60 61
e 60 62
e 60 63
e 60 64
e 60 65
e 60 66
e 60 68
e 60 69
e 60 70
e 60 72
e 60 78
e 60 80
e 60 81
e 60 83
e 60 88
e 60 89
e 60 91
e 60 93
e 60 94
e 60 95
e 60 98
e 60 99
e 60 100
e 60 101
e 60 105
e 60 106
e 60 107
e 60 108
e 60 109
e 60 110
e 60 111
e 60 112
e 60 114
e 60 118
e 60 121
e 60 122
e 60 123
e 60 125
e 60 127
e 60 129
e 60 130
e 60 131
e 60 132
e 60 135
e 60 136
e 60 141
e 60 142
e 60 146
e 60 150
e 60 151
e 60 154
e 60 158
e 60 161
e 60 164
e 60 166
e 60 168
e 60 171
e 60 174
e 60 179
e 60 183
e 60 187
e 60 190
e 60 192
e 60 193
e 60 194
e 60 195
e 60 196
e 60 197
e 61 69
e 61 70
e 61 106
e 61 111
e 61 112
e 61 114
e 61 123
e 61 127
e 61 129
e 61 130
e 61 141
e 61 151
e 61 158
e 61 177
e 61 192
e 61 194
e 61 195
e 61 196
e 61 197
e 62 63
e 62 64
e 62 65
e 62 66
e 62 98
e 62 99
e 62 100
e 62 101
e 62 105
e 62 106
e 62 107
e 62 108
e 62 109
e 62 110
e 62 122
e 62 123
e 62 131
e 62 132
e 62 135
e 62 154
e 62 168
e 62 179
e 63 64
e 63 65
e 63 66
e 63 91
e 63 98
e 63 99
e 63 100
e 63 101
e 63 105
e 63 106
e 63 107
e 63 108
e 63 109
e 63 110
e 63 122
e 63 123
e 63 131
e 63 132
e 63 135
e 63 154
e 63 168
e 63 179
e 64 65
e 64 66
e 64 98
e 64 99
e 64 100
e 64 101
e 64 105
e 64 106
e 64 107
e 64 108
e 64 109
e 64 110
e 64 122
e 64 123
e 64 131
e 64 132
e 64 135
e 64 139
e 64 154
e 64 168
e 64 170
e 64 179
e 65 66
e 65 98
e 65 99
e 65 100
e 65 101
e 65 105
e 65 106
e 65 107
e 65 108
e 65 109
e 65 110
e 65 122
e 65 123
e 65 131
e 65 132
e 65 135
e 65 136
e 65 139
e 65 154
e 65 168
e 65 170
e 65 179
e 66 98
e 66 99
e 66 100
e 66 101
e 66 105
e 66 106
e 66 107
e 66 108
e 66 109
e 66 110
e 66 122
e 66 123
e 66 131
e 66 132
e 66 135
e 66 136
e 66 139
e 66 154
e 66 168
e 66 170
e 66 179
e 66 182
e 67 70
e 67 81
e 67 83
e 67 84
e 67 87
e 67 103
e 67 127
e 67 134
e 67 135
e 67 136
e 67 149
e 67 150
e 67 158
e 67 159
e 67 164
e 67 170
e 67 174
e 67 178
e 67 192
e 67 194
e 67 195
e 67 196
e 68 99
e 68 101
e 68 132
e 68 135
e 68 154
e 68 166
e 68 168
e 68 171
e 68 183
e 68 187
e 69 70
e 69 73
e 69 86
e 69 87
e 69 88
e 69 90
e 69 93
e 69 94
e 69 95
e 69 96
e 69 99
e 69 108
e 69 109
e 69 110
e 69 111
e 69 112
e 69 114
e 69 118
e 69 121
e 69 122
e 69 125
e 69 127
e 69 130
e 69 132
e 69 136
e 69 141
e 69 142
e 69 143
e 69 146
e 69 150
e 69 151
e 69 158
e 69 161
e 69 164
e 69 168
e 69 171
e 69 174
e 69 175
e 69 177
e 69 183
e 69 186
e 69 190
e 69 192
e 69 193
e 69 194
e 69 195
e 70 73
e 70 83
e 70 86
e 70 87
e 70 88
e 70 93
e 70 94
e 70 95
e 70 96
e 70 99
e 70 108
e 70 110
e 70 111
e 70 112
e 70 114
e 70 118
e 70 121
e 70 122
e 70 125
e 70 127
e 70 130
e 70 132
e 70 136
e 70 141
e 70 142
e 70 143
e 70 146
e 70 150
e 70 151
e 70 158
e 70 161
e 70 164
e 70 167
e 70 168
e 70 170
e 70 171
e 70 174
e 70 175
e 70 177
e 70 178
e 70 183
e 70 185
e 70 186
e 70 190
e 70 192
e 70 193
e 70 194
e 70 195
e 71 72
e 71 74
e 71 83
e 71 103
e 71 111
e 71 112
e 71 113
e 71 114
e 71 116
e 71 117
e 71 118
e 71 121
e 71 122
e 71 137
e 71 150
e 71 153
e 71 158
e 71 161
e 71 164
e 71 168
e 71 195
e 71 196
e 72 74
e 72 103
e 72 150
e 72 161
e 72 164
e 73 77
e 73 85
e 73 86
e 73 88
e 73 90
e 73 96
e 73 99
e 73 110
e 73 128
e 73 136
e 73 140
e 73 143
e 73 147
e 73 149
e 73 155
e 73 156
e 73 167
e 73 172
e 73 174
e 73 184
e 73 189
e 73 191
e 74 78
e 74 87
e 74 103
e 74 104
e 74 108
e 74 112
e 74 114
e 74 150
e 74 154
e 74 161
e 74 164
e 74 168
e 74 171
e 75 76
e 75 79
e 75 86
e 75 96
e 75 126
e 75 128
e 75 136
e 75 144
e 75 147
e 75 149
e 75 163
e 75 167
e 75 172
e 75 174
e 75 198
e 76 79
e 76 96
e 76 126
e 76 128
e 76 136
e 76 144
e 76 147
e 76 149
e 76 153
e 76 172
e 76 174
e 77 85
e 77 86
e 77 88
e 77 90
e 77 96
e 77 97
e 77 102
e 77 124
e 77 128
e 77 136
e 77 138
e 77 140
e 77 147
e 77 149
e 77 167
e 77 169
e 77 172
e 77 173
e 77 184
e 77 191
e 78 80
e 78 91
e 78 95
e 78 99
e 78 100
e 78 103
e 78 104
e 78 108
e 78 136
e 78 137
e 78 154
e 78 158
e 78 168
e 78 171
e 78 174
e 78 179
e 78 182
e 78 188
e 79 86
e 79 96
e 79 118
e 79 126
e 79 128
e 79 136
e 79 142
e 79 143
e 79 144
e 79 147
e 79 149
e 79 163
e 79 167
e 79 172
e 79 174
e 80 91
e 80 95
e 80 135
e 80 139
e 80 162
e 80 168
e 80 179
e 80 181
e 80 189
e 81 83
e 81 98
e 81 99
e 81 100
e 81 101
e 81 104
e 81 105
e 81 106
e 81 108
e 81 123
e 81 131
e 81 132
e 81 136
e 81 150
e 81 158
e 81 164
e 81 170
e 81 174
e 81 178
e 81 182
e 81 183
e 81 194
e 81 195
e 81 196
e 81 197
e 82 99
e 82 118
e 82 121
e 82 122
e 82 136
e 82 143
e 83 84
e 83 87
e 83 89
e 83 90
e 83 98
e 83 99
e 83 100
e 83 101
e 83 103
e 83 105
e 83 108
e 83 109
e 83 111
e 83 114
e 83 118
e 83 121
e 83 127
e 83 131
e 83 132
e 83 134
e 83 135
e 83 136
e 83 137
e 83 141
e 83 142
e 83 149
e 83 150
e 83 158
e 83 159
e 83 164
e 83 168
e 83 170
e 83 174
e 83 178
e 83 182
e 83 185
e 83 192
e 83 194
e 83 195
e 83 196
e 83 197
e 84 118
e 84 129
e 84 134
e 84 135
e 84 136
e 84 158
e 84 159
e 84 170
e 84 175
e 84 183
e 84 194
e 84 195
e 85 86
e 85 102
e 85 128
e 85 140
e 85 147
e 85 149
e 85 155
e 85 156
e 85 167
e 85 169
e 85 189
e 85 191
e 86 88
e 86 90
e 86 96
e 86 97
e 86 102
e 86 124
e 86 128
e 86 136
e 86 138
e 86 140
e 86 147
e 86 149
e 86 153
e 86 155
e 86 156
e 86 163
e 86 167
e 86 169
e 86 172
e 86 173
e 86 176
e 86 184
e 86 189
e 86 191
e 86 198
e 87 96
e 87 103
e 87 112
e 87 114
e 87 130
e 87 150
e 87 158
e 87 161
e 87 164
e 87 186
e 87 192
e 87 194
e 87 195
e 88 90
e 88 96
e 88 97
e 88 99
e 88 110
e 88 114
e 88 128
e 88 131
e 88 132
e 88 136
e 88 140
e 88 143
e 88 147
e 88 149
e 88 158
e 88 167
e 88 172
e 88 174
e 88 183
e 88 184
e 88 191
e 88 196
e 89 95
e 89 118
e 89 121
e 89 127
e 89 132
e 89 136
e 89 141
e 89 142
e 89 149
e 89 158
e 89 171
e 89 174
e 89 196
e 90 96
e 90 97
e 90 124
e 90 125
e 90 128
e 90 133
e 90 136
e 90 138
e 90 140
e 90 147
e 90 149
e 90 153
e 90 167
e 90 169
e 90 172
e 90 173
e 90 176
e 90 184
e 90 191
e 90 198
e 91 95
e 91 104
e 91 105
e 91 107
e 91 116
e 91 119
e 91 134
e 91 135
e 91 139
e 91 168
e 91 179
e 92 148
e 92 153
e 92 163
e 93 94
e 93 95
e 93 108
e 93 111
e 93 114
e 93 118
e 93 121
e 93 122
e 93 125
e 93 127
e 93 130
e 93 132
e 93 136
e 93 146
e 93 168
e 93 171
e 93 175
e 93 177
e 93 183
e 93 190
e 93 192
e 93 193
e 94 95
e 94 108
e 94 111
e 94 114
e 94 118
e 94 121
e 94 122
e 94 125
e 94 130
e 94 132
e 94 136
e 94 146
e 94 168
e 94 171
e 94 175
e 94 177
e 94 183
e 94 190
e 94 192
e 94 193
e 95 98
e 95 99
e 95 100
e 95 101
e 95 108
e 95 110
e 95 111
e 95 122
e 95 125
e 95 127
e 95 131
e 95 132
e 95 135
e 95 136
e 95 141
e 95 142
e 95 146
e 95 154
e 95 158
e 95 168
e 95 171
e 95 174
e 95 179
e 95 190
e 95 192
e 95 193
e 96 97
e 96 124
e 96 125
e 96 126
e 96 128
e 96 130
e 96 136
e 96 138
e 96 140
e 96 142
e 96 144
e 96 147
e 96 149
e 96 150
e 96 153
e 96 158
e 96 161
e 96 163
e 96 164
e 96 167
e 96 169
e 96 172
e 96 173
e 96 176
e 96 184
e 96 186
e 96 191
e 96 192
e 96 194
e 96 198
e 97 124
e 97 128
e 97 136
e 97 138
e 97 147
e 97 149
e 97 167
e 97 169
e 97 172
e 98 99
e 98 100
e 98 101
e 98 105
e 98 106
e 98 107
e 98 108
e 98 109
e 98 110
e 98 122
e 98 123
e 98 131
e 98 132
e 98 135
e 98 136
e 98 154
e 98 164
e 98 168
e 98 170
e 98 171
e 98 174
e 98 178
e 98 179
e 98 182
e 98 194
e 98 197
e 99 100
e 99 101
e 99 105
e 99 106
e 99 107
e 99 108
e 99 109
e 99 110
e 99 118
e 99 121
e 99 122
e 99 123
e 99 131
e 99 132
e 99 135
e 99 136
e 99 143
e 99 154
e 99 164
e 99 166
e 99 168
e 99 170
e 99 171
e 99 174
e 99 178
e 99 179
e 99 182
e 99 187
e 99 194
e 99 197
e 100 101
e 100 105
e 100 106
e 100 107
e 100 108
e 100 109
e 100 110
e 100 122
e 100 123
e 100 131
e 100 132
e 100 135
e 100 136
e 100 154
e 100 164
e 100 168
e 100 170
e 100 171
e 100 174
e 100 178
e 100 179
e 100 182
e 100 194
e 100 197
e 101 105
e 101 106
e 101 107
e 101 108
e 101 109
e 101 110
e 101 122
e 101 123
e 101 131
e 101 132
e 101 135
e 101 136
e 101 154
e 101 164
e 101 166
e 101 168
e 101 170
e 101 171
e 101 174
e 101 178
e 101 179
e 101 182
e 101 187
e 101 194
e 101 197
e 102 128
e 102 138
e 102 140
e 102 147
e 102 156
e 102 167
e 102 169
e 102 172
e 102 173
e 102 176
e 102 189
e 103 104
e 103 108
e 103 112
e 103 114
e 103 150
e 103 154
e 103 161
e 103 164
e 103 168
e 103 171
e 103 178
e 104 105
e 104 107
e 104 108
e 104 154
e 104 159
e 104 168
e 104 171
e 105 106
e 105 107
e 105 108
e 105 109
e 105 110
e 105 122
e 105 123
e 105 131
e 105 132
e 105 135
e 105 136
e 105 154
e 105 164
e 105 168
e 105 170
e 105 174
e 105 178
e 105 179
e 105 182
e 105 194
e 105 197
e 106 107
e 106 108
e 106 109
e 106 110
e 106 111
e 106 122
e 106 123
e 106 131
e 106 132
e 106 135
e 106 154
e 106 168
e 106 179
e 106 183
e 106 187
e 106 188
e 107 108
e 107 109
e 107 110
e 107 122
e 107 123
e 107 131
e 107 132
e 107 135
e 107 154
e 107 162
e 107 168
e 107 179
e 107 187
e 107 188
e 108 109
e 108 110
e 108 111
e 108 122
e 108 123
e 108 125
e 108 131
e 108 132
e 108 135
e 108 136
e 108 146
e 108 154
e 108 164
e 108 168
e 108 170
e 108 171
e 108 174
e 108 178
e 108 179
e 108 182
e 108 190
e 108 192
e 108 193
e 108 194
e 108 197
e 109 110
e 109 122
e 109 123
e 109 131
e 109 132
e 109 135
e 109 154
e 109 168
e 109 170
e 109 177
e 109 179
e 110 122
e 110 123
e 110 131
e 110 132
e 110 135
e 110 136
e 110 139
e 110 143
e 110 154
e 110 168
e 110 170
e 110 171
e 110 174
e 110 179
e 110 182
e 111 116
e 111 117
e 111 118
e 111 121
e 111 122
e 111 123
e 111 125
e 111 132
e 111 137
e 111 146
e 111 153
e 111 168
e 111 170
e 111 171
e 111 190
e 111 192
e 111 193
e 111 194
e 111 195
e 111 196
e 112 113
e 112 114
e 112 127
e 112 130
e 112 141
e 112 150
e 112 151
e 112 158
e 112 161
e 112 164
e 112 192
e 112 195
e 112 196
e 113 114
e 113 158
e 113 161
e 113 164
e 113 196
e 114 125
e 114 127
e 114 130
e 114 131
e 114 132
e 114 136
e 114 141
e 114 142
e 114 146
e 114 151
e 114 158
e 114 161
e 114 164
e 114 183
e 114 190
e 114 192
e 114 193
e 114 195
e 114 196
e 115 148
e 115 152
e 115 153
e 115 157
e 115 167
e 115 172
e 116 117
e 116 118
e 116 119
e 116 121
e 116 122
e 116 134
e 116 135
e 116 137
e 116 153
e 116 168
e 116 179
e 116 181
e 117 118
e 117 121
e 117 122
e 117 137
e 117 153
e 117 168
e 117 179
e 117 183
e 118 121
e 118 122
e 118 125
e 118 129
e 118 132
e 118 136
e 118 137
e 118 142
e 118 143
e 118 146
e 118 153
e 118 168
e 118 170
e 118 174
e 118 175
e 118 177
e 118 183
e 118 190
e 118 192
e 118 193
e 118 194
e 119 120
e 119 134
e 119 135
e 119 179
e 121 122
e 121 125
e 121 132
e 121 136
e 121 137
e 121 142
e 121 143
e 121 146
e 121 153
e 121 158
e 121 168
e 121 174
e 121 175
e 121 177
e 121 183
e 121 190
e 121 192
e 121 193
e 121 196
e 122 123
e 122 125
e 122 131
e 122 132
e 122 135
e 122 136
e 122 137
e 122 143
e 122 146
e 122 153
e 122 154
e 122 168
e 122 171
e 122 179
e 122 190
e 122 192
e 122 193
e 123 131
e 123 132
e 123 135
e 123 154
e 123 162
e 123 168
e 123 179
e 123 183
e 123 187
e 123 188
e 124 128
e 124 138
e 124 140
e 124 153
e 124 176
e 124 184
e 124 198
e 125 130
e 125 132
e 125 136
e 125 142
e 125 146
e 125 151
e 125 168
e 125 171
e 125 175
e 125 177
e 125 183
e 125 190
e 125 192
e 125 193
e 126 128
e 126 136
e 126 144
e 126 147
e 126 149
e 126 153
e 126 167
e 126 172
e 126 174
e 127 130
e 127 136
e 127 141
e 127 142
e 127 150
e 127 151
e 127 158
e 127 164
e 127 171
e 127 174
e 127 178
e 127 185
e 127 192
e 127 195
e 128 136
e 128 138
e 128 140
e 128 144
e 128 147
e 128 149
e 128 153
e 128 155
e 128 156
e 128 167
e 128 169
e 128 172
e 128 173
e 128 176
e 128 184
e 128 189
e 128 191
e 128 192
e 129 136
e 129 170
e 129 175
e 129 183
e 129 194
e 129 195
e 129 196
e 129 197
e 130 136
e 130 141
e 130 146
e 130 150
e 130 151
e 130 158
e 130 161
e 130 164
e 130 177
e 130 185
e 130 186
e 130 190
e 130 192
e 130 193
e 130 194
e 130 195
e 131 132
e 131 135
e 131 136
e 131 139
e 131 154
e 131 158
e 131 164
e 131 168
e 131 170
e 131 171
e 131 174
e 131 178
e 131 179
e 131 182
e 131 183
e 131 194
e 131 196
e 131 197
e 132 135
e 132 136
e 132 141
e 132 142
e 132 146
e 132 154
e 132 158
e 132 164
e 132 166
e 132 168
e 132 170
e 132 171
e 132 174
e 132 178
e 132 179
e 132 182
e 132 183
e 132 187
e 132 190
e 132 192
e 132 193
e 132 194
e 132 196
e 132 197
e 133 155
e 133 156
e 133 167
e 133 180
e 134 135
e 134 159
e 134 179
e 134 195
e 135 139
e 135 154
e 135 159
e 135 162
e 135 166
e 135 168
e 135 171
e 135 179
e 135 187
e 135 189
e 135 195
e 136 137
e 136 138
e 136 140
e 136 141
e 136 142
e 136 143
e 136 144
e 136 146
e 136 147
e 136 149
e 136 150
e 136 151
e 136 158
e 136 161
e 136 162
e 136 163
e 136 164
e 136 167
e 136 168
e 136 170
e 136 171
e 136 172
e 136 174
e 136 175
e 136 177
e 136 178
e 136 182
e 136 183
e 136 184
e 136 185
e 136 188
e 136 190
e 136 191
e 136 192
e 136 193
e 136 194
e 136 196
e 136 197
e 137 153
e 137 158
e 137 168
e 137 188
e 138 145
e 138 147
e 138 149
e 138 155
e 138 167
e 138 169
e 138 172
e 138 173
e 138 178
e 139 162
e 139 179
e 139 189
e 140 147
e 140 149
e 140 153
e 140 155
e 140 156
e 140 167
e 140 169
e 140 172
e 140 173
e 140 176
e 140 184
e 140 189
e 140 191
e 140 198
e 141 142
e 141 151
e 141 158
e 141 171
e 141 174
e 141 192
e 141 195
e 142 143
e 142 149
e 142 150
e 142 158
e 142 161
e 142 164
e 142 168
e 142 171
e 142 174
e 142 185
e 142 193
e 142 196
e 143 174
e 144 147
e 144 149
e 144 153
e 144 172
e 144 174
e 144 198
e 145 167
e 146 151
e 146 168
e 146 171
e 146 175
e 146 177
e 146 183
e 146 190
e 146 192
e 146 193
e 147 149
e 147 153
e 147 156
e 147 167
e 147 169
e 147 172
e 147 173
e 147 174
e 147 176
e 147 184
e 147 189
e 147 191
e 148 153
e 149 150
e 149 153
e 149 155
e 149 156
e 149 160
e 149 163
e 149 167
e 149 169
e 149 172
e 149 173
e 149 174
e 149 176
e 149 178
e 149 181
e 149 184
e 149 189
e 149 191
e 149 194
e 149 195
e 150 151
e 150 158
e 150 161
e 150 164
e 150 170
e 150 178
e 150 185
e 150 186
e 150 192
e 150 194
e 150 195
e 150 196
e 151 158
e 151 177
e 151 185
e 151 190
e 151 192
e 151 193
e 151 195
e 152 157
e 153 163
e 153 167
e 153 168
e 153 172
e 153 181
e 153 198
e 154 166
e 154 168
e 154 170
e 154 171
e 154 179
e 154 187
e 155 156
e 155 167
e 155 178
e 155 180
e 155 189
e 155 191
e 156 167
e 156 169
e 156 172
e 156 173
e 156 176
e 156 189
e 156 191
e 157 180
e 158 161
e 158 164
e 158 168
e 158 170
e 158 171
e 158 174
e 158 178
e 158 183
e 158 186
e 158 188
e 158 192
e 158 194
e 158 195
e 158 196
e 159 195
e 161 164
e 161 186
e 161 192
e 161 194
e 161 196
e 162 179
e 162 187
e 162 188
e 162 189
e 163 167
e 163 172
e 163 173
e 164 170
e 164 174
e 164 178
e 164 182
e 164 186
e 164 192
e 164 194
e 164 195
e 164 196
e 164 197
e 165 185
e 166 168
e 166 171
e 166 183
e 166 187
e 167 169
e 167 172
e 167 173
e 167 176
e 167 184
e 167 189
e 167 191
e 167 198
e 168 170
e 168 171
e 168 179
e 168 187
e 168 190
e 168 192
e 168 193
e 168 194
e 168 195
e 169 172
e 169 173
e 169 176
e 169 189
e 170 174
e 170 175
e 170 178
e 170 182
e 170 183
e 170 192
e 170 194
e 170 195
e 170 196
e 170 197
e 171 174
e 171 187
e 171 190
e 171 192
e 171 193
e 172 173
e 172 176
e 172 184
e 172 189
e 172 191
e 173 176
e 173 184
e 173 189
e 173 191
e 174 178
e 174 182
e 174 192
e 174 194
e 174 197
e 175 177
e 175 183
e 175 190
e 175 192
e 175 193
e 175 194
e 176 184
e 176 189
e 176 192
e 176 198
e 177 183
e 177 190
e 177 192
e 177 193
e 178 182
e 178 192
e 178 194
e 178 195
e 178 196
e 178 197
e 179 183
e 179 189
e 182 183
e 182 194
e 182 197
e 183 190
e 183 192
e 183 193
e 183 194
e 183 196
e 184 191
e 184 198
e 185 192
e 186 192
e 186 194
e 187 188
e 189 191
e 190 192
e 190 193
e 192 193
e 192 194
e 192 195
e 194 195
e 194 196
e 194 197
e 195 196
e 195 197
e 196 197
